631
1 0 5 562 1 579 1 578 1 577 1 576 1
2 0 5 386 1 32 1 460 1 230 1 183 1
3 0 5 284 1 121 1 86 1 45 1 28 1
4 0 5 196 1 406 1 215 1 527 1 519 1
5 0 5 372 1 211 1 264 1 399 1 505 1
6 0 5 181 1 343 1 385 1 63 1 402 1
7 0 5 133 1 442 1 59 1 363 1 495 1
8 0 5 461 1 43 1 327 1 130 1 64 1
9 0 5 196 1 207 1 185 1 410 1 4 1
10 0 5 114 1 306 1 352 1 418 1 348 1
11 0 5 130 1 461 1 8 1 283 1 135 1
12 0 5 319 1 212 1 472 1 276 1 28 1
13 0 5 63 1 292 1 343 1 27 1 77 1
14 0 5 440 1 531 1 78 1 251 1 445 1
15 0 5 460 1 182 1 230 1 396 1 249 1
16 0 5 320 1 117 1 396 1 384 1 125 1
17 0 5 79 1 433 1 425 1 326 1 57 1
18 0 5 115 1 335 1 76 1 358 1 133 1
19 0 5 75 1 513 1 389 1 220 1 205 1
20 0 5 452 1 415 1 141 1 422 1 161 1
21 0 5 388 1 59 1 378 1 7 1 363 1
22 0 5 249 1 316 1 386 1 230 1 460 1
23 0 5 527 1 536 1 215 1 337 1 406 1
24 0 5 253 1 439 1 491 1 314 1 286 1
25 0 5 163 1 421 1 174 1 60 1 489 1
26 0 5 173 1 193 1 157 1 151 1 457 1
27 0 5 385 1 181 1 13 1 366 1 343 1
28 0 5 276 1 284 1 12 1 212 1 68 1
29 0 5 501 1 85 1 56 1 40 1 153 1
30 0 5 50 1 146 1 76 1 445 1 423 1
31 0 5 81 1 467 1 88 1 95 1 439 1
32 0 5 182 1 455 1 125 1 2 1 460 1
33 0 5 194 1 238 1 87 1 102 1 385 1
34 0 5 263 1 296 1 261 1 331 1 391 1
35 0 5 364 1 370 1 309 1 435 1 183 1
36 0 5 52 1 400 1 49 1 459 1 96 1
37 0 5 508 1 367 1 293 1 457 1 175 1
38 0 5 389 1 285 1 513 1 19 1 75 1
39 0 5 112 1 48 1 427 1 471 1 116 1
40 0 5 153 1 118 1 362 1 408 1 29 1
41 0 5 255 1 144 1 169 1 437 1 265 1
42 0 5 93 1 142 1 482 1 191 1 452 1
43 0 5 327 1 8 1 533 1 195 1 333 1
44 0 5 117 1 429 1 80 1 198 1 16 1
45 0 5 472 1 12 1 319 1 3 1 383 1
46 0 5 232 1 233 1 533 1 137 1 479 1
47 0 5 486 1 521 1 484 1 381 1 138 1
48 0 5 39 1 209 1 116 1 112 1 427 1
49 0 5 96 1 36 1 400 1 82 1 524 1
50 0 5 30 1 154 1 494 1 358 1 76 1
51 0 5 224 1 141 1 229 1 218 1 432 1
52 0 5 62 1 36 1 522 1 129 1 459 1
53 0 5 298 1 405 1 365 1 368 1 290 1
54 0 5 474 1 97 1 244 1 352 1 10 1
55 0 5 220 1 475 1 513 1 134 1 75 1
56 0 5 107 1 438 1 379 1 29 1 40 1
57 0 5 493 1 377 1 208 1 17 1 437 1
58 0 5 108 1 99 1 418 1 355 1 348 1
59 0 5 21 1 388 1 363 1 7 1 378 1
60 0 5 489 1 421 1 163 1 504 1 497 1
61 0 5 270 1 357 1 304 1 397 1 198 1
62 0 5 52 1 67 1 522 1 129 1 82 1
63 0 5 343 1 13 1 292 1 6 1 282 1
64 0 5 235 1 8 1 179 1 135 1 267 1
65 0 5 393 1 327 1 235 1 169 1 8 1
66 0 5 214 1 171 1 417 1 140 1 122 1
67 0 5 62 1 522 1 459 1 129 1 256 1
68 0 5 170 1 70 1 212 1 128 1 204 1
69 0 5 190 1 271 1 334 1 341 1 227 1
70 0 5 68 1 170 1 128 1 188 1 204 1
71 0 5 167 1 462 1 450 1 146 1 332 1
72 0 5 113 1 213 1 525 1 243 1 321 1
73 0 5 497 1 136 1 532 1 422 1 496 1
74 0 5 478 1 417 1 294 1 401 1 113 1
75 0 5 19 1 220 1 513 1 475 1 389 1
76 0 5 332 1 430 1 30 1 146 1 18 1
77 0 5 328 1 517 1 292 1 13 1 63 1
78 0 5 440 1 251 1 434 1 445 1 256 1
79 0 5 425 1 17 1 433 1 278 1 298 1
80 0 5 429 1 44 1 198 1 117 1 320 1
81 0 5 31 1 439 1 273 1 166 1 253 1
82 0 5 524 1 275 1 49 1 96 1 36 1
83 0 5 242 1 384 1 429 1 16 1 117 1
84 0 5 105 1 99 1 355 1 131 1 58 1
85 0 5 444 1 29 1 86 1 147 1 409 1
86 0 5 284 1 127 1 121 1 3 1 85 1
87 0 5 102 1 395 1 210 1 508 1 282 1
88 0 5 223 1 273 1 31 1 166 1 194 1
89 0 5 158 1 286 1 245 1 299 1 534 1
90 0 5 424 1 277 1 94 1 412 1 468 1
91 0 5 444 1 197 1 147 1 501 1 218 1
92 0 5 299 1 514 1 357 1 304 1 61 1
93 0 5 42 1 191 1 482 1 142 1 452 1
94 0 5 424 1 476 1 506 1 412 1 468 1
95 0 5 354 1 465 1 436 1 403 1 31 1
96 0 5 49 1 325 1 289 1 82 1 301 1
97 0 5 474 1 244 1 54 1 352 1 39 1
98 0 5 480 1 517 1 139 1 340 1 200 1
99 0 5 58 1 443 1 355 1 418 1 108 1
100 0 5 492 1 180 1 503 1 235 1 477 1
101 0 5 187 1 469 1 420 1 413 1 449 1
102 0 5 87 1 508 1 395 1 210 1 282 1
103 0 5 415 1 246 1 136 1 504 1 422 1
104 0 5 266 1 111 1 391 1 221 1 261 1
105 0 5 131 1 488 1 359 1 516 1 108 1
106 0 5 498 1 308 1 428 1 470 1 323 1
107 0 5 56 1 362 1 29 1 40 1 438 1
108 0 5 58 1 348 1 105 1 418 1 131 1
109 0 5 376 1 134 1 139 1 340 1 530 1
110 0 5 234 1 453 1 192 1 275 1 363 1
111 0 5 221 1 239 1 104 1 337 1 360 1
112 0 5 39 1 471 1 413 1 48 1 97 1
113 0 5 401 1 72 1 243 1 213 1 329 1
114 0 5 348 1 306 1 10 1 342 1 105 1
115 0 5 18 1 248 1 388 1 285 1 252 1
116 0 5 209 1 48 1 512 1 39 1 427 1
117 0 5 44 1 16 1 429 1 198 1 320 1
118 0 5 153 1 40 1 362 1 288 1 408 1
119 0 5 404 1 237 1 346 1 574 1 573 1
120 0 5 469 1 53 1 405 1 420 1 290 1
121 0 5 284 1 3 1 383 1 86 1 276 1
122 0 5 214 1 184 1 140 1 98 1 480 1
123 0 5 457 1 151 1 530 1 193 1 37 1
124 0 5 321 1 525 1 165 1 205 1 392 1
125 0 5 396 1 189 1 16 1 320 1 32 1
126 0 5 398 1 410 1 281 1 150 1 288 1
127 0 5 86 1 383 1 432 1 284 1 276 1
128 0 5 500 1 203 1 232 1 68 1 170 1
129 0 5 256 1 275 1 312 1 434 1 459 1
130 0 5 11 1 461 1 8 1 283 1 135 1
131 0 5 330 1 105 1 394 1 359 1 108 1
132 0 5 351 1 338 1 399 1 211 1 323 1
133 0 5 7 1 335 1 154 1 494 1 442 1
134 0 5 392 1 475 1 55 1 487 1 376 1
135 0 5 291 1 64 1 11 1 267 1 130 1
136 0 5 246 1 422 1 73 1 497 1 103 1
137 0 5 333 1 145 1 533 1 46 1 283 1
138 0 5 484 1 247 1 318 1 47 1 521 1
139 0 5 98 1 517 1 340 1 200 1 392 1
140 0 5 480 1 214 1 122 1 184 1 98 1
141 0 5 51 1 473 1 432 1 224 1 229 1
142 0 5 191 1 42 1 93 1 236 1 311 1
143 0 5 479 1 377 1 144 1 437 1 523 1
144 0 5 437 1 41 1 143 1 265 1 255 1
145 0 5 283 1 137 1 310 1 379 1 186 1
146 0 5 445 1 30 1 76 1 332 1 71 1
147 0 5 432 1 218 1 444 1 197 1 91 1
148 0 5 216 1 368 1 365 1 199 1 405 1
149 0 5 238 1 171 1 259 1 294 1 417 1
150 0 5 374 1 126 1 410 1 207 1 408 1
151 0 5 193 1 173 1 556 1 26 1 457 1
152 0 5 398 1 185 1 207 1 519 1 126 1
153 0 5 118 1 362 1 40 1 501 1 408 1
154 0 5 50 1 442 1 423 1 494 1 133 1
155 0 5 274 1 349 1 467 1 194 1 287 1
156 0 5 201 1 394 1 443 1 345 1 464 1
157 0 5 465 1 173 1 297 1 436 1 26 1
158 0 5 245 1 286 1 89 1 534 1 24 1
159 0 5 184 1 98 1 480 1 27 1 13 1
160 0 5 416 1 475 1 19 1 220 1 75 1
161 0 5 482 1 422 1 452 1 381 1 415 1
162 0 5 258 1 349 1 238 1 508 1 395 1
163 0 5 421 1 25 1 60 1 174 1 313 1
164 0 5 448 1 244 1 323 1 470 1 132 1
165 0 5 502 1 200 1 525 1 213 1 124 1
166 0 5 273 1 81 1 253 1 491 1 24 1
167 0 5 228 1 71 1 225 1 146 1 445 1
168 0 5 313 1 262 1 338 1 489 1 421 1
169 0 5 265 1 65 1 41 1 393 1 437 1
170 0 5 68 1 70 1 128 1 212 1 28 1
171 0 5 66 1 149 1 529 1 366 1 402 1
172 0 5 511 1 337 1 315 1 263 1 408 1
173 0 5 26 1 157 1 193 1 465 1 151 1
174 0 5 504 1 269 1 163 1 25 1 60 1
175 0 5 293 1 13 1 292 1 385 1 530 1
176 0 5 449 1 404 1 119 1 469 1 471 1
177 0 5 175 1 562 1 570 1 569 1 568 1
178 0 5 448 1 351 1 211 1 132 1 164 1
179 0 5 267 1 477 1 64 1 180 1 492 1
180 0 5 100 1 477 1 235 1 492 1 179 1
181 0 5 402 1 6 1 282 1 343 1 27 1
182 0 5 32 1 460 1 15 1 125 1 455 1
183 0 5 324 1 309 1 2 1 316 1 35 1
184 0 5 159 1 480 1 122 1 140 1 340 1
185 0 5 398 1 207 1 152 1 236 1 410 1
186 0 5 310 1 409 1 145 1 137 1 46 1
187 0 5 101 1 420 1 469 1 405 1 199 1
188 0 5 277 1 500 1 212 1 204 1 68 1
189 0 5 320 1 125 1 16 1 32 1 2 1
190 0 5 341 1 69 1 334 1 301 1 271 1
191 0 5 142 1 93 1 452 1 311 1 42 1
192 0 5 453 1 341 1 363 1 227 1 110 1
193 0 5 151 1 457 1 173 1 26 1 123 1
194 0 5 349 1 33 1 155 1 274 1 287 1
195 0 5 387 1 492 1 327 1 461 1 43 1
196 0 5 9 1 4 1 207 1 519 1 527 1
197 0 5 147 1 91 1 288 1 432 1 218 1
198 0 5 397 1 61 1 117 1 44 1 320 1
199 0 5 405 1 347 1 260 1 368 1 148 1
200 0 5 502 1 165 1 98 1 139 1 480 1
201 0 5 318 1 156 1 507 1 345 1 138 1
202 0 5 353 1 506 1 216 1 493 1 260 1
203 0 5 500 1 128 1 479 1 468 1 377 1
204 0 5 212 1 277 1 68 1 188 1 170 1
205 0 5 513 1 499 1 414 1 220 1 19 1
206 0 5 295 1 217 1 226 1 369 1 456 1
207 0 5 185 1 9 1 152 1 410 1 196 1
208 0 5 326 1 493 1 377 1 143 1 57 1
209 0 5 48 1 116 1 39 1 512 1 112 1
210 0 5 395 1 222 1 87 1 282 1 258 1
211 0 5 132 1 351 1 178 1 264 1 5 1
212 0 5 204 1 12 1 319 1 277 1 28 1
213 0 5 243 1 72 1 502 1 165 1 525 1
214 0 5 122 1 66 1 140 1 480 1 184 1
215 0 5 406 1 23 1 4 1 527 1 536 1
216 0 5 148 1 202 1 493 1 368 1 260 1
217 0 5 250 1 206 1 507 1 485 1 394 1
218 0 5 147 1 432 1 197 1 501 1 473 1
219 0 5 483 1 226 1 252 1 462 1 248 1
220 0 5 513 1 75 1 55 1 205 1 19 1
221 0 5 111 1 360 1 337 1 391 1 239 1
222 0 5 395 1 258 1 210 1 238 1 282 1
223 0 5 88 1 274 1 349 1 155 1 194 1
224 0 5 51 1 269 1 141 1 45 1 473 1
225 0 5 228 1 445 1 167 1 146 1 71 1
226 0 5 456 1 219 1 295 1 369 1 462 1
227 0 5 378 1 363 1 192 1 414 1 69 1
228 0 5 225 1 167 1 445 1 71 1 146 1
229 0 5 489 1 504 1 276 1 383 1 472 1
230 0 5 460 1 15 1 2 1 22 1 386 1
231 0 5 458 1 535 1 352 1 48 1 447 1
232 0 5 233 1 46 1 128 1 479 1 170 1
233 0 5 232 1 46 1 479 1 128 1 523 1
234 0 5 110 1 312 1 423 1 275 1 129 1
235 0 5 180 1 65 1 492 1 64 1 100 1
236 0 5 398 1 185 1 311 1 410 1 9 1
237 0 5 157 1 567 1 565 1 564 1 563 1
238 0 5 149 1 258 1 33 1 162 1 282 1
239 0 5 373 1 337 1 406 1 111 1 215 1
240 0 5 518 1 411 1 268 1 357 1 455 1
241 0 5 280 1 257 1 505 1 372 1 10 1
242 0 5 83 1 384 1 16 1 117 1 396 1
243 0 5 213 1 113 1 72 1 502 1 401 1
244 0 5 164 1 448 1 97 1 54 1 211 1
245 0 5 158 1 364 1 286 1 89 1 309 1
246 0 5 136 1 422 1 103 1 344 1 73 1
247 0 5 318 1 138 1 482 1 484 1 521 1
248 0 5 252 1 115 1 369 1 285 1 430 1
249 0 5 466 1 526 1 22 1 230 1 15 1
250 0 5 217 1 485 1 507 1 394 1 84 1
251 0 5 256 1 78 1 440 1 434 1 275 1
252 0 5 332 1 483 1 248 1 219 1 115 1
253 0 5 24 1 439 1 81 1 166 1 491 1
254 0 5 447 1 211 1 371 1 132 1 5 1
255 0 5 41 1 437 1 326 1 144 1 169 1
256 0 5 251 1 129 1 459 1 434 1 275 1
257 0 5 322 1 372 1 505 1 280 1 241 1
258 0 5 238 1 162 1 222 1 210 1 395 1
259 0 5 520 1 149 1 350 1 349 1 274 1
260 0 5 199 1 216 1 202 1 368 1 412 1
261 0 5 391 1 296 1 360 1 34 1 291 1
262 0 5 168 1 313 1 489 1 279 1 277 1
263 0 5 34 1 331 1 296 1 172 1 379 1
264 0 5 380 1 505 1 399 1 132 1 211 1
265 0 5 169 1 481 1 393 1 144 1 65 1
266 0 5 104 1 267 1 291 1 391 1 135 1
267 0 5 179 1 266 1 291 1 64 1 135 1
268 0 5 514 1 240 1 455 1 92 1 518 1
269 0 5 224 1 504 1 174 1 51 1 103 1
270 0 5 61 1 304 1 446 1 297 1 397 1
271 0 5 69 1 414 1 334 1 190 1 227 1
272 0 5 426 1 441 1 503 1 433 1 17 1
273 0 5 166 1 81 1 491 1 24 1 253 1
274 0 5 155 1 223 1 349 1 194 1 467 1
275 0 5 524 1 82 1 129 1 312 1 256 1
276 0 5 383 1 284 1 28 1 127 1 121 1
277 0 5 212 1 188 1 204 1 262 1 12 1
278 0 5 425 1 368 1 493 1 79 1 17 1
279 0 5 419 1 262 1 472 1 12 1 489 1
280 0 5 241 1 372 1 257 1 10 1 342 1
281 0 5 356 1 126 1 410 1 382 1 390 1
282 0 5 181 1 343 1 402 1 210 1 238 1
283 0 5 379 1 145 1 333 1 331 1 130 1
284 0 5 121 1 3 1 276 1 86 1 28 1
285 0 5 389 1 388 1 38 1 115 1 248 1
286 0 5 534 1 158 1 245 1 89 1 403 1
287 0 5 467 1 194 1 465 1 155 1 31 1
288 0 5 362 1 118 1 197 1 126 1 281 1
289 0 5 499 1 96 1 329 1 325 1 339 1
290 0 5 365 1 420 1 53 1 368 1 148 1
291 0 5 135 1 267 1 266 1 391 1 64 1
292 0 5 328 1 63 1 13 1 343 1 77 1
293 0 5 37 1 175 1 328 1 292 1 457 1
294 0 5 417 1 350 1 74 1 149 1 66 1
295 0 5 206 1 305 1 226 1 219 1 369 1
296 0 5 261 1 34 1 263 1 331 1 391 1
297 0 5 463 1 446 1 157 1 270 1 354 1
298 0 5 53 1 433 1 368 1 17 1 79 1
299 0 5 92 1 446 1 354 1 89 1 286 1
300 0 5 367 1 102 1 37 1 87 1 457 1
301 0 5 414 1 96 1 190 1 334 1 325 1
302 0 5 336 1 427 1 512 1 116 1 48 1
303 0 5 361 1 397 1 270 1 61 1 304 1
304 0 5 61 1 270 1 357 1 446 1 92 1
305 0 5 295 1 307 1 450 1 531 1 430 1
306 0 5 342 1 114 1 10 1 348 1 352 1
307 0 5 450 1 305 1 531 1 71 1 167 1
308 0 5 428 1 106 1 498 1 116 1 48 1
309 0 5 364 1 35 1 183 1 245 1 324 1
310 0 5 186 1 145 1 409 1 438 1 137 1
311 0 5 452 1 410 1 236 1 382 1 356 1
312 0 5 434 1 234 1 129 1 275 1 454 1
313 0 5 168 1 262 1 489 1 421 1 163 1
314 0 5 491 1 24 1 273 1 286 1 158 1
315 0 5 511 1 374 1 126 1 23 1 408 1
316 0 5 386 1 324 1 22 1 2 1 183 1
317 0 5 431 1 497 1 407 1 103 1 399 1
318 0 5 201 1 247 1 507 1 138 1 156 1
319 0 5 12 1 212 1 45 1 28 1 277 1
320 0 5 189 1 16 1 125 1 198 1 117 1
321 0 5 124 1 525 1 72 1 243 1 213 1
322 0 5 257 1 488 1 342 1 528 1 380 1
323 0 5 470 1 132 1 164 1 338 1 351 1
324 0 5 183 1 316 1 309 1 386 1 22 1
325 0 5 96 1 289 1 301 1 190 1 499 1
326 0 5 208 1 17 1 255 1 144 1 41 1
327 0 5 43 1 195 1 65 1 8 1 393 1
328 0 5 77 1 292 1 13 1 293 1 517 1
329 0 5 339 1 401 1 289 1 400 1 96 1
330 0 5 131 1 345 1 359 1 156 1 105 1
331 0 5 379 1 283 1 263 1 11 1 296 1
332 0 5 76 1 483 1 252 1 462 1 146 1
333 0 5 137 1 283 1 43 1 533 1 145 1
334 0 5 69 1 190 1 301 1 414 1 271 1
335 0 5 133 1 18 1 494 1 358 1 154 1
336 0 5 302 1 427 1 512 1 94 1 48 1
337 0 5 360 1 239 1 23 1 221 1 111 1
338 0 5 132 1 399 1 351 1 168 1 60 1
339 0 5 400 1 329 1 401 1 289 1 49 1
340 0 5 517 1 139 1 98 1 200 1 376 1
341 0 5 190 1 192 1 69 1 334 1 453 1
342 0 5 306 1 322 1 488 1 10 1 114 1
343 0 5 63 1 6 1 13 1 282 1 385 1
344 0 5 496 1 532 1 73 1 375 1 246 1
345 0 5 490 1 330 1 156 1 359 1 105 1
346 0 5 559 1 567 1 566 1 565 1 564 1
347 0 5 413 1 471 1 336 1 302 1 412 1
348 0 5 108 1 114 1 418 1 58 1 10 1
349 0 5 155 1 194 1 274 1 162 1 223 1
350 0 5 478 1 520 1 294 1 259 1 149 1
351 0 5 132 1 211 1 178 1 338 1 448 1
352 0 5 10 1 418 1 54 1 306 1 474 1
353 0 5 202 1 506 1 493 1 500 1 216 1
354 0 5 403 1 95 1 463 1 436 1 299 1
355 0 5 99 1 418 1 404 1 58 1 108 1
356 0 5 382 1 390 1 281 1 311 1 410 1
357 0 5 411 1 61 1 304 1 92 1 518 1
358 0 5 494 1 430 1 335 1 50 1 154 1
359 0 5 516 1 330 1 105 1 345 1 375 1
360 0 5 221 1 337 1 111 1 23 1 239 1
361 0 5 303 1 61 1 397 1 446 1 270 1
362 0 5 153 1 501 1 118 1 288 1 40 1
363 0 5 495 1 59 1 453 1 192 1 378 1
364 0 5 309 1 35 1 245 1 158 1 286 1
365 0 5 290 1 53 1 148 1 368 1 405 1
366 0 5 529 1 402 1 171 1 181 1 27 1
367 0 5 508 1 37 1 300 1 395 1 102 1
368 0 5 148 1 298 1 405 1 278 1 53 1
369 0 5 456 1 248 1 416 1 509 1 226 1
370 0 5 435 1 35 1 22 1 309 1 249 1
371 0 5 254 1 447 1 399 1 5 1 211 1
372 0 5 280 1 5 1 257 1 505 1 342 1
373 0 5 239 1 406 1 527 1 23 1 4 1
374 0 5 150 1 408 1 315 1 511 1 536 1
375 0 5 528 1 532 1 516 1 359 1 105 1
376 0 5 109 1 134 1 77 1 340 1 328 1
377 0 5 57 1 143 1 493 1 208 1 479 1
378 0 5 227 1 363 1 285 1 59 1 7 1
379 0 5 438 1 331 1 283 1 56 1 145 1
380 0 5 264 1 505 1 399 1 322 1 257 1
381 0 5 496 1 161 1 47 1 486 1 73 1
382 0 5 356 1 390 1 281 1 311 1 410 1
383 0 5 276 1 127 1 284 1 121 1 229 1
384 0 5 396 1 242 1 83 1 16 1 125 1
385 0 5 27 1 6 1 343 1 282 1 63 1
386 0 5 2 1 316 1 22 1 230 1 460 1
387 0 5 195 1 533 1 333 1 43 1 327 1
388 0 5 21 1 285 1 59 1 115 1 389 1
389 0 5 285 1 38 1 19 1 513 1 388 1
390 0 5 356 1 382 1 281 1 410 1 311 1
391 0 5 261 1 104 1 266 1 291 1 360 1
392 0 5 134 1 475 1 220 1 487 1 124 1
393 0 5 65 1 265 1 533 1 327 1 481 1
394 0 5 443 1 485 1 156 1 131 1 330 1
395 0 5 222 1 210 1 87 1 508 1 102 1
396 0 5 384 1 125 1 16 1 466 1 32 1
397 0 5 198 1 61 1 303 1 304 1 270 1
398 0 5 236 1 152 1 185 1 126 1 519 1
399 0 5 264 1 380 1 132 1 407 1 338 1
400 0 5 339 1 36 1 49 1 459 1 329 1
401 0 5 113 1 329 1 243 1 339 1 72 1
402 0 5 366 1 181 1 282 1 529 1 6 1
403 0 5 534 1 354 1 286 1 95 1 89 1
404 0 5 119 1 237 1 346 1 574 1 573 1
405 0 5 199 1 368 1 53 1 148 1 365 1
406 0 5 373 1 215 1 239 1 4 1 527 1
407 0 5 431 1 497 1 399 1 317 1 73 1
408 0 5 374 1 40 1 118 1 150 1 153 1
409 0 5 186 1 310 1 85 1 46 1 137 1
410 0 5 311 1 126 1 185 1 207 1 281 1
411 0 5 357 1 518 1 240 1 304 1 61 1
412 0 5 94 1 476 1 506 1 468 1 500 1
413 0 5 471 1 112 1 420 1 39 1 101 1
414 0 5 271 1 205 1 301 1 334 1 227 1
415 0 5 103 1 20 1 422 1 452 1 161 1
416 0 5 160 1 475 1 369 1 19 1 509 1
417 0 5 294 1 74 1 66 1 149 1 171 1
418 0 5 355 1 58 1 99 1 10 1 352 1
419 0 5 279 1 472 1 12 1 262 1 276 1
420 0 5 187 1 405 1 199 1 101 1 413 1
421 0 5 163 1 25 1 60 1 489 1 168 1
422 0 5 161 1 136 1 415 1 246 1 73 1
423 0 5 454 1 154 1 30 1 358 1 442 1
424 0 5 94 1 277 1 262 1 476 1 90 1
425 0 5 79 1 278 1 17 1 493 1 433 1
426 0 5 433 1 272 1 17 1 326 1 441 1
427 0 5 302 1 336 1 39 1 471 1 116 1
428 0 5 308 1 116 1 106 1 512 1 338 1
429 0 5 80 1 44 1 83 1 117 1 198 1
430 0 5 76 1 248 1 358 1 18 1 115 1
431 0 5 317 1 407 1 497 1 73 1 421 1
432 0 5 473 1 147 1 141 1 218 1 197 1
433 0 5 426 1 17 1 298 1 79 1 272 1
434 0 5 312 1 78 1 454 1 256 1 129 1
435 0 5 370 1 466 1 35 1 22 1 249 1
436 0 5 354 1 95 1 446 1 89 1 403 1
437 0 5 144 1 255 1 143 1 41 1 265 1
438 0 5 379 1 56 1 310 1 362 1 107 1
439 0 5 253 1 81 1 24 1 534 1 403 1
440 0 5 14 1 78 1 251 1 434 1 256 1
441 0 5 503 1 272 1 100 1 426 1 492 1
442 0 5 495 1 154 1 7 1 423 1 133 1
443 0 5 394 1 99 1 156 1 58 1 131 1
444 0 5 147 1 91 1 85 1 29 1 432 1
445 0 5 146 1 225 1 30 1 78 1 167 1
446 0 5 299 1 463 1 304 1 270 1 436 1
447 0 5 254 1 132 1 211 1 178 1 351 1
448 0 5 164 1 178 1 244 1 211 1 132 1
449 0 5 471 1 413 1 451 1 458 1 54 1
450 0 5 307 1 71 1 305 1 462 1 167 1
451 0 5 449 1 352 1 418 1 355 1 458 1
452 0 5 20 1 311 1 161 1 191 1 415 1
453 0 5 192 1 110 1 495 1 363 1 341 1
454 0 5 423 1 434 1 30 1 312 1 234 1
455 0 5 32 1 268 1 182 1 240 1 125 1
456 0 5 226 1 369 1 509 1 462 1 219 1
457 0 5 193 1 151 1 37 1 123 1 293 1
458 0 5 39 1 112 1 449 1 352 1 474 1
459 0 5 522 1 256 1 67 1 400 1 36 1
460 0 5 15 1 182 1 230 1 2 1 32 1
461 0 5 8 1 195 1 130 1 11 1 43 1
462 0 5 71 1 332 1 219 1 483 1 450 1
463 0 5 297 1 446 1 354 1 270 1 95 1
464 0 5 510 1 490 1 484 1 486 1 156 1
465 0 5 157 1 95 1 287 1 173 1 31 1
466 0 5 526 1 435 1 249 1 396 1 15 1
467 0 5 287 1 31 1 155 1 274 1 349 1
468 0 5 500 1 476 1 203 1 128 1 188 1
469 0 5 101 1 187 1 420 1 176 1 290 1
470 0 5 323 1 498 1 132 1 164 1 338 1
471 0 5 413 1 112 1 449 1 39 1 427 1
472 0 5 45 1 12 1 276 1 229 1 419 1
473 0 5 432 1 141 1 218 1 51 1 147 1
474 0 5 97 1 54 1 244 1 352 1 112 1
475 0 5 160 1 416 1 55 1 220 1 392 1
476 0 5 500 1 468 1 94 1 128 1 412 1
477 0 5 180 1 179 1 100 1 492 1 235 1
478 0 5 350 1 74 1 294 1 417 1 520 1
479 0 5 143 1 523 1 46 1 232 1 481 1
480 0 5 140 1 98 1 184 1 122 1 517 1
481 0 5 523 1 265 1 393 1 144 1 437 1
482 0 5 521 1 247 1 161 1 93 1 42 1
483 0 5 219 1 332 1 252 1 462 1 76 1
484 0 5 138 1 510 1 47 1 464 1 486 1
485 0 5 507 1 394 1 443 1 84 1 156 1
486 0 5 47 1 510 1 516 1 381 1 521 1
487 0 5 392 1 134 1 55 1 475 1 109 1
488 0 5 528 1 322 1 105 1 342 1 375 1
489 0 5 60 1 504 1 229 1 262 1 421 1
490 0 5 345 1 464 1 516 1 359 1 484 1
491 0 5 314 1 24 1 273 1 166 1 253 1
492 0 5 100 1 195 1 180 1 235 1 503 1
493 0 5 57 1 208 1 278 1 377 1 216 1
494 0 5 358 1 50 1 335 1 154 1 133 1
495 0 5 442 1 363 1 453 1 110 1 7 1
496 0 5 381 1 344 1 73 1 516 1 532 1
497 0 5 73 1 431 1 407 1 136 1 317 1
498 0 5 106 1 470 1 323 1 338 1 308 1
499 0 5 289 1 205 1 525 1 321 1 243 1
500 0 5 476 1 128 1 468 1 203 1 188 1
501 0 5 362 1 29 1 153 1 91 1 218 1
502 0 5 200 1 165 1 213 1 243 1 122 1
503 0 5 441 1 100 1 272 1 492 1 180 1
504 0 5 489 1 229 1 174 1 269 1 103 1
505 0 5 380 1 264 1 257 1 322 1 372 1
506 0 5 353 1 202 1 94 1 476 1 493 1
507 0 5 485 1 201 1 318 1 394 1 156 1
508 0 5 367 1 395 1 87 1 37 1 102 1
509 0 5 369 1 416 1 248 1 515 1 456 1
510 0 5 464 1 484 1 486 1 516 1 490 1
511 0 5 315 1 536 1 374 1 408 1 172 1
512 0 5 302 1 116 1 427 1 336 1 428 1
513 0 5 220 1 205 1 19 1 75 1 38 1
514 0 5 268 1 92 1 240 1 357 1 324 1
515 0 5 509 1 124 1 220 1 160 1 416 1
516 0 5 359 1 486 1 105 1 375 1 490 1
517 0 5 340 1 98 1 139 1 480 1 77 1
518 0 5 240 1 411 1 357 1 61 1 92 1
519 0 5 527 1 126 1 398 1 196 1 152 1
520 0 5 259 1 350 1 149 1 223 1 478 1
521 0 5 482 1 47 1 486 1 161 1 484 1
522 0 5 459 1 67 1 52 1 62 1 36 1
523 0 5 481 1 479 1 143 1 437 1 46 1
524 0 5 82 1 275 1 129 1 49 1 110 1
525 0 5 72 1 124 1 499 1 165 1 321 1
526 0 5 466 1 249 1 15 1 22 1 230 1
527 0 5 519 1 23 1 536 1 4 1 215 1
528 0 5 488 1 375 1 532 1 322 1 105 1
529 0 5 366 1 171 1 140 1 402 1 6 1
530 0 5 376 1 293 1 123 1 563 1 561 1
531 0 5 14 1 450 1 167 1 445 1 71 1
532 0 5 375 1 528 1 344 1 73 1 246 1
533 0 5 387 1 43 1 137 1 393 1 46 1
534 0 5 403 1 286 1 158 1 89 1 439 1
535 0 5 447 1 231 1 244 1 97 1 209 1
536 0 5 23 1 215 1 527 1 511 1 315 1
537 0 5 562 1 579 1 578 1 577 1 576 1
538 0 5 562 1 579 1 578 1 577 1 576 1
539 0 5 562 1 579 1 578 1 577 1 576 1
540 0 5 562 1 579 1 578 1 577 1 576 1
541 0 5 562 1 579 1 578 1 577 1 576 1
542 0 5 562 1 579 1 578 1 577 1 576 1
543 0 5 562 1 579 1 578 1 577 1 576 1
544 0 5 562 1 579 1 578 1 577 1 576 1
545 0 5 562 1 579 1 578 1 577 1 576 1
546 0 5 562 1 579 1 578 1 577 1 576 1
547 0 5 562 1 579 1 578 1 577 1 576 1
548 0 5 562 1 579 1 578 1 577 1 576 1
549 0 5 562 1 579 1 578 1 577 1 576 1
550 0 5 562 1 579 1 578 1 577 1 576 1
551 0 5 562 1 579 1 578 1 577 1 576 1
552 0 5 562 1 579 1 578 1 577 1 576 1
553 0 5 562 1 579 1 578 1 577 1 576 1
554 0 5 562 1 579 1 578 1 577 1 576 1
555 0 5 562 1 579 1 578 1 577 1 576 1
556 0 5 562 1 579 1 578 1 577 1 576 1
557 0 5 562 1 579 1 578 1 577 1 576 1
558 0 5 562 1 579 1 578 1 577 1 576 1
559 0 5 562 1 579 1 578 1 577 1 576 1
560 0 5 562 1 579 1 578 1 577 1 576 1
561 0 5 562 1 579 1 578 1 577 1 576 1
562 0 5 562 1 579 1 578 1 577 1 576 1
563 0 5 562 1 579 1 578 1 577 1 576 1
564 0 5 562 1 579 1 578 1 577 1 576 1
565 0 5 562 1 579 1 578 1 577 1 576 1
566 0 5 562 1 579 1 578 1 577 1 576 1
567 0 5 562 1 579 1 578 1 577 1 576 1
568 0 5 562 1 579 1 578 1 577 1 576 1
569 0 5 562 1 579 1 578 1 577 1 576 1
570 0 5 562 1 579 1 578 1 577 1 576 1
571 0 5 562 1 579 1 578 1 577 1 576 1
572 0 5 562 1 579 1 578 1 577 1 576 1
573 0 5 562 1 579 1 578 1 577 1 576 1
574 0 5 562 1 579 1 578 1 577 1 576 1
575 0 5 562 1 579 1 578 1 577 1 576 1
576 0 5 562 1 579 1 578 1 577 1 576 1
577 0 5 562 1 579 1 578 1 577 1 576 1
578 0 5 562 1 579 1 578 1 577 1 576 1
579 0 5 562 1 579 1 578 1 577 1 576 1
580 0 5 562 1 579 1 578 1 577 1 576 1
581 0 5 562 1 579 1 578 1 577 1 576 1
582 0 5 562 1 579 1 578 1 577 1 576 1
583 0 5 562 1 579 1 578 1 577 1 576 1
584 0 5 562 1 579 1 578 1 577 1 576 1
585 0 5 562 1 579 1 578 1 577 1 576 1
586 0 5 562 1 579 1 578 1 577 1 576 1
587 0 5 562 1 579 1 578 1 577 1 576 1
588 0 5 562 1 579 1 578 1 577 1 576 1
589 0 5 562 1 579 1 578 1 577 1 576 1
590 0 5 562 1 579 1 578 1 577 1 576 1
591 0 5 562 1 579 1 578 1 577 1 576 1
592 0 5 562 1 579 1 578 1 577 1 576 1
593 0 5 562 1 579 1 578 1 577 1 576 1
594 0 5 562 1 579 1 578 1 577 1 576 1
595 0 5 562 1 579 1 578 1 577 1 576 1
596 0 5 562 1 579 1 578 1 577 1 576 1
597 0 5 562 1 579 1 578 1 577 1 576 1
598 0 5 562 1 579 1 578 1 577 1 576 1
599 0 5 562 1 579 1 578 1 577 1 576 1
600 0 5 562 1 579 1 578 1 577 1 576 1
601 0 5 562 1 579 1 578 1 577 1 576 1
602 0 5 562 1 579 1 578 1 577 1 576 1
603 0 5 562 1 579 1 578 1 577 1 576 1
604 0 5 562 1 579 1 578 1 577 1 576 1
605 0 5 562 1 579 1 578 1 577 1 576 1
606 0 5 562 1 579 1 578 1 577 1 576 1
607 0 5 562 1 579 1 578 1 577 1 576 1
608 0 5 562 1 579 1 578 1 577 1 576 1
609 0 5 562 1 579 1 578 1 577 1 576 1
610 0 5 562 1 579 1 578 1 577 1 576 1
611 0 5 562 1 579 1 578 1 577 1 576 1
612 0 5 562 1 579 1 578 1 577 1 576 1
613 0 5 562 1 579 1 578 1 577 1 576 1
614 0 5 562 1 579 1 578 1 577 1 576 1
615 0 5 562 1 579 1 578 1 577 1 576 1
616 0 5 562 1 579 1 578 1 577 1 576 1
617 0 5 562 1 579 1 578 1 577 1 576 1
618 0 5 562 1 579 1 578 1 577 1 576 1
619 0 5 562 1 579 1 578 1 577 1 576 1
620 0 5 562 1 579 1 578 1 577 1 576 1
621 0 5 562 1 579 1 578 1 577 1 576 1
622 0 5 562 1 579 1 578 1 577 1 576 1
623 0 5 562 1 579 1 578 1 577 1 576 1
624 0 5 562 1 579 1 578 1 577 1 576 1
625 0 5 562 1 579 1 578 1 577 1 576 1
626 0 5 562 1 579 1 578 1 577 1 576 1
627 0 5 562 1 579 1 578 1 577 1 576 1
628 0 5 562 1 579 1 578 1 577 1 576 1
629 0 5 562 1 579 1 578 1 577 1 576 1
630 0 5 562 1 579 1 578 1 577 1 576 1
631 0 5 562 1 579 1 578 1 577 1 576 1
-1
EOF
